
Gurobi 12.0.2 (win64) logging started Fri Jun  6 10:10:21 2025

Set parameter LogFile to value "C:\Ioana\_uni\honours\slp\algorithm\Main_files\results\others\prox_tubules_new\Task_014_Sample003_irr_gurobi.log"
Gurobi Optimizer version 12.0.2 build v12.0.2rc0 (win64 - Windows 11.0 (26100.2))

CPU model: Intel(R) Core(TM) Ultra 5 125H, instruction set [SSE2|AVX|AVX2]
Thread count: 14 physical cores, 18 logical processors, using up to 18 threads

Non-default parameters:
TimeLimit  2200

Optimize a model with 47658 rows, 34794 columns and 147841 nonzeros
Model fingerprint: 0x098a38c0
Variable types: 17400 continuous, 17394 integer (17394 binary)
Coefficient statistics:
  Matrix range     [1e-04, 8e+04]
  Objective range  [2e-04, 9e-01]
  Bounds range     [1e+00, 1e+03]
  RHS range        [1e+00, 1e+00]
Presolve removed 31249 rows and 21835 columns
Presolve time: 0.30s
Presolved: 16409 rows, 12959 columns, 54595 nonzeros
Variable types: 6413 continuous, 6546 integer (6546 binary)

Root relaxation: objective 1.427978e-04, 534 iterations, 0.03 seconds (0.04 work units)

    Nodes    |    Current Node    |     Objective Bounds      |     Work
 Expl Unexpl |  Obj  Depth IntInf | Incumbent    BestBd   Gap | It/Node Time

     0     0    0.00014    0   11          -    0.00014      -     -    0s
H    0     0                       0.1152776    0.00014   100%     -    0s
     0     0    0.02858    0   16    0.11528    0.02858  75.2%     -    0s
     0     0     cutoff    0         0.11528    0.11528  0.00%     -    0s

Explored 1 nodes (1055 simplex iterations) in 0.62 seconds (0.67 work units)
Thread count was 18 (of 18 available processors)

Solution count 1: 0.115278 

Optimal solution found (tolerance 1.00e-04)
Best objective 1.152776268905e-01, best bound 1.152776268905e-01, gap 0.0000%
